c FILE /home/rafael/Documents/HappySet/MIHS/inputs/happygen/output/graph_scale_free_k5_p0.4_v50_20241127_082447.txt
c SOURCE This is a scale-free graph formed for the happy graph colouring problem.
c DESCRIPTION It was generated using the problem generator of Rhyd Lewis
c
c GRAPH STATS
c Seed                             = 1010664909
c Number of Nodes                  = 50
c Number of colours k              = 5
c Number of pre-assignments        = 20
c Number of links per new node     = 5
c Density                          = 0.191837
c 
c The degrees of nodes 1 to 50, respectively, are as follows 
c [27, 24, 22, 20, 19, 19, 18, 16, 12, 12, 12, 12, 12, 11, 11, 11, 10, 10, 10, 9, 9, 9, 7, 7, 6, 6, 
c  6, 6, 6, 6, 6, 6, 6, 6, 6, 5, 5, 5, 5, 5, 5, 5, 5, 5, 5, 5, 5, 5, 5, 5] 
c  
p edge 50 235 5
e 1 2
e 1 4
e 1 5
e 1 7
e 1 8
e 1 10
e 1 11
e 1 12
e 1 13
e 1 14
e 1 16
e 1 17
e 1 18
e 1 20
e 1 22
e 1 23
e 1 24
e 1 26
e 1 28
e 1 33
e 1 37
e 1 39
e 1 42
e 1 43
e 1 46
e 1 49
e 1 50
e 2 3
e 2 4
e 2 5
e 2 6
e 2 7
e 2 8
e 2 9
e 2 10
e 2 11
e 2 12
e 2 14
e 2 16
e 2 18
e 2 21
e 2 23
e 2 27
e 2 28
e 2 29
e 2 32
e 2 36
e 2 37
e 2 40
e 2 42
e 3 4
e 3 5
e 3 6
e 3 7
e 3 8
e 3 9
e 3 10
e 3 11
e 3 12
e 3 13
e 3 14
e 3 15
e 3 22
e 3 24
e 3 25
e 3 26
e 3 30
e 3 32
e 3 39
e 3 41
e 3 42
e 4 5
e 4 6
e 4 7
e 4 8
e 4 11
e 4 13
e 4 15
e 4 19
e 4 20
e 4 21
e 4 23
e 4 24
e 4 25
e 4 29
e 4 32
e 4 33
e 4 37
e 5 7
e 5 8
e 5 9
e 5 14
e 5 15
e 5 16
e 5 19
e 5 22
e 5 25
e 5 26
e 5 27
e 5 32
e 5 38
e 5 39
e 5 45
e 6 8
e 6 9
e 6 12
e 6 13
e 6 14
e 6 16
e 6 18
e 6 21
e 6 29
e 6 31
e 6 33
e 6 40
e 6 46
e 6 47
e 6 48
e 6 49
e 7 8
e 7 9
e 7 10
e 7 14
e 7 17
e 7 20
e 7 30
e 7 31
e 7 33
e 7 36
e 7 41
e 7 42
e 7 44
e 8 11
e 8 17
e 8 18
e 8 20
e 8 21
e 8 34
e 8 41
e 8 44
e 8 50
e 9 10
e 9 15
e 9 20
e 9 32
e 9 43
e 9 48
e 9 49
e 10 15
e 10 17
e 10 18
e 10 22
e 10 24
e 10 39
e 10 50
e 11 23
e 11 24
e 11 25
e 11 27
e 11 28
e 11 37
e 11 46
e 12 17
e 12 21
e 12 28
e 12 29
e 12 31
e 12 34
e 12 41
e 12 48
e 13 24
e 13 27
e 13 29
e 13 34
e 13 36
e 13 38
e 13 44
e 13 47
e 14 26
e 14 28
e 14 44
e 14 47
e 14 50
e 15 17
e 15 25
e 15 38
e 15 39
e 15 43
e 15 47
e 16 19
e 16 20
e 16 26
e 16 30
e 16 35
e 16 41
e 16 46
e 17 23
e 17 33
e 17 35
e 17 36
e 18 27
e 18 31
e 18 40
e 18 43
e 18 47
e 19 20
e 19 23
e 19 38
e 19 42
e 19 43
e 19 45
e 19 49
e 20 31
e 20 34
e 21 36
e 21 38
e 21 40
e 21 50
e 22 24
e 22 30
e 22 37
e 22 44
e 22 48
e 23 30
e 25 35
e 26 35
e 27 45
e 28 45
e 29 34
e 30 40
e 31 46
e 32 45
e 33 49
e 34 35
e 35 48
n 4 1
n 10 3
n 14 5
n 16 2
n 27 4
n 28 5
n 29 1
n 32 1
n 33 1
n 35 2
n 37 1
n 38 3
n 39 3
n 40 2
n 42 5
n 43 4
n 44 5
n 46 2
n 47 5
n 48 2
